
Gurobi 9.5.1 (win64) logging started Wed Apr 20 04:48:40 2022

Set parameter LogFile to value "./Log/Direct_MIP_Sshape_solver_1080_order_108_batch.log"
Gurobi Optimizer version 9.5.1 build v9.5.1rc2 (win64)
Thread count: 6 physical cores, 12 logical processors, using up to 12 threads
Optimize a model with 224100 rows, 339552 columns and 1042848 nonzeros
Model fingerprint: 0x04416a31
Variable types: 0 continuous, 339552 integer (339552 binary)
Coefficient statistics:
  Matrix range     [1e+00, 1e+01]
  Objective range  [4e-01, 2e+01]
  Bounds range     [1e+00, 1e+00]
  RHS range        [1e+00, 1e+01]
Found heuristic solution: objective 20751.400000
Presolve removed 120204 rows and 120204 columns
Presolve time: 2.79s
Presolved: 103896 rows, 219348 columns, 903852 nonzeros
Variable types: 0 continuous, 219348 integer (219348 binary)

Deterministic concurrent LP optimizer: primal and dual simplex
Showing first log only...


Use crossover to convert LP symmetric solution to basic solution...
Concurrent spin time: 0.03s

Solved with primal simplex

Root relaxation: objective 6.177240e+03, 116519 iterations, 0.89 seconds (0.91 work units)
Total elapsed time = 5.73s
Total elapsed time = 10.41s

    Nodes    |    Current Node    |     Objective Bounds      |     Work
 Expl Unexpl |  Obj  Depth IntInf | Incumbent    BestBd   Gap | It/Node Time

     0     0 6177.24000    0 4124 20751.4000 6177.24000  70.2%     -   13s
H    0     0                    18817.400000 6177.24000  67.2%     -   13s
     0     0 6177.24000    0 5805 18817.4000 6177.24000  67.2%     -   23s
H    0     0                    18340.400000 6177.24000  66.3%     -   24s
H    0     0                    17723.800000 6177.24000  65.1%     -   25s
     0     0 6177.24000    0 5442 17723.8000 6177.24000  65.1%     -   27s
     0     0 6177.24000    0 4236 17723.8000 6177.24000  65.1%     -   53s
     0     0 6177.24000    0 4227 17723.8000 6177.24000  65.1%     -   54s
     0     0 6177.24000    0 4421 17723.8000 6177.24000  65.1%     -   75s
H    0     0                    16346.200000 6177.24000  62.2%     -  137s
     0     0 6177.24000    0 4173 16346.2000 6177.24000  62.2%     -  137s
     0     0 6177.24000    0 4346 16346.2000 6177.24000  62.2%     -  159s
     0     0 6177.24000    0 4132 16346.2000 6177.24000  62.2%     -  162s
H    0     0                    15515.600000 6177.24000  60.2%     -  164s
H    0     0                    15465.400000 6177.24000  60.1%     -  164s
H    0     0                    14357.400000 6177.24000  57.0%     -  167s
H    0     0                    14257.400000 6177.24000  56.7%     -  167s
     0     2 6186.00000    0 3931 14257.4000 6186.00000  56.6%     -  210s
     3     2 6186.00000    2 4016 14257.4000 6186.00000  56.6%  4034  215s
     5     2 infeasible    3      14257.4000 6186.00000  56.6%  2452  220s
     9     2 infeasible    5      14257.4000 6187.91667  56.6%  2013  229s
    10     2 6188.14667    5 4652 14257.4000 6188.14667  56.6%  2260  230s
    13     2 infeasible    7      14257.4000 6188.14667  56.6%  1880  238s
    15     2 6189.35697    8 4486 14257.4000 6189.22667  56.6%  2043  242s
    17     4 6191.06941    9 4529 14257.4000 6189.36457  56.6%  2065  248s
    19     4 infeasible   10      14257.4000 6191.06941  56.6%  2041  254s
    23     4 6191.49884   11 4432 14257.4000 6191.06941  56.6%  1909  261s
    27     4 infeasible   12      14257.4000 6191.49884  56.6%  1814  269s
    31     4 6197.62043   13 4616 14257.4000 6196.70192  56.5%  1948  277s
    35     4 infeasible   14      14257.4000 6197.62043  56.5%  2024  286s
    39     6 6198.64201   15 4735 14257.4000 6198.44214  56.5%  2186  295s
    43     8 infeasible   16      14257.4000 6198.64201  56.5%  2366  316s
H   46     8                    13953.600000 6198.64201  55.6%  2371  316s
H   47     8                    13579.600000 6198.76997  54.4%  2420  316s
    49    10 6202.81625   17 5623 13579.6000 6198.76997  54.4%  2922  346s
    55    14 6253.41783   18 5965 13579.6000 6202.81625  54.3%  4091  393s
H   61    16                    13047.400000 6202.81625  52.5%  5016  634s
H   65    16                    12982.200000 6218.43953  52.1%  6091  634s
    67    22 6229.92267   19 5731 12982.2000 6218.43953  52.1%  6475  688s
    73    28 6246.75129   20 5607 12982.2000 6218.43953  52.1%  6791  731s
    81    33 6229.92267   20 5719 12982.2000 6218.43953  52.1%  6821  765s
    88    40 6246.75129   21 5637 12982.2000 6218.43953  52.1%  6724  778s
    99    45 6291.79206   22 5790 12982.2000 6218.43953  52.1%  6193  797s
H  100    45                    12978.600000 6218.43953  52.1%  6131  797s
H  106    45                    12972.800000 6218.43953  52.1%  5993  797s
   108    50 6291.80922   23 5833 12972.8000 6218.43953  52.1%  5888  814s
   119    52 6471.26456   25 4353 12972.8000 6218.43953  52.1%  5771  965s
   129    58 6326.13912   25 5663 12972.8000 6218.43953  52.1%  7122  993s
H  142    58                    12941.000000 6218.43953  51.9%  6883  993s
   143    58 6284.28483   30 6389 12941.0000 6218.43953  51.9%  6838 1000s

Cutting planes:
  Gomory: 2
  Cover: 58915
  Clique: 247
  MIR: 381
  StrongCG: 11
  Zero half: 34

Explored 145 nodes (1433576 simplex iterations) in 1000.48 seconds (1729.95 work units)
Thread count was 12 (of 12 available processors)

Solution count 10: 12941 12972.8 12978.6 ... 15465.4

Time limit reached
Best objective 1.294100000000e+04, best bound 6.218600000000e+03, gap 51.9465%

Gurobi 9.5.1 (win64) logging started Thu Apr 28 00:38:53 2022

Set parameter LogFile to value "./Log/Direct_MIP_Sshape_solver_1080_order_108_batch.log"
Gurobi Optimizer version 9.5.1 build v9.5.1rc2 (win64)
Thread count: 6 physical cores, 12 logical processors, using up to 12 threads
Optimize a model with 244836 rows, 355104 columns and 1334232 nonzeros
Model fingerprint: 0xdab1c4fa
Model has 5076 quadratic constraints
Variable types: 0 continuous, 355104 integer (344736 binary)
Coefficient statistics:
  Matrix range     [1e+00, 5e+01]
  QMatrix range    [1e+00, 1e+00]
  QLMatrix range   [1e+00, 1e+00]
  Objective range  [4e-01, 4e+01]
  Bounds range     [1e+00, 1e+00]
  RHS range        [1e+00, 1e+01]
Presolve removed 111456 rows and 121176 columns
Presolve time: 3.24s
Presolved: 133380 rows, 233928 columns, 982800 nonzeros
Variable types: 0 continuous, 233928 integer (223884 binary)
Found heuristic solution: objective 38949.200000

Deterministic concurrent LP optimizer: primal and dual simplex
Showing first log only...


Use crossover to convert LP symmetric solution to basic solution...

Root crossover log...

   12775 PPushes remaining with PInf 0.0000000e+00                10s
     749 PPushes remaining with PInf 0.0000000e+00                15s
       0 PPushes remaining with PInf 0.0000000e+00                15s

  Push phase complete: Pinf 0.0000000e+00, Dinf 3.1662700e-10     15s


Root simplex log...

Iteration    Objective       Primal Inf.    Dual Inf.      Time
  126753    4.0128000e+03   0.000000e+00   0.000000e+00     16s
  126753    4.0128000e+03   0.000000e+00   0.000000e+00     16s
Concurrent spin time: 0.26s

Solved with primal simplex

Root relaxation: objective 4.012800e+03, 126753 iterations, 11.49 seconds (18.99 work units)

    Nodes    |    Current Node    |     Objective Bounds      |     Work
 Expl Unexpl |  Obj  Depth IntInf | Incumbent    BestBd   Gap | It/Node Time

     0     0 4012.80000    0 26086 38949.2000 4012.80000  89.7%     -   90s
H    0     0                    38921.200000 4012.80000  89.7%     -   90s
     0     0 4012.80000    0 16082 38921.2000 4012.80000  89.7%     -  317s
H    0     0                    37651.600000 4012.80000  89.3%     -  336s
     0     0 4012.80000    0 15925 37651.6000 4012.80000  89.3%     -  342s
     0     0 5911.89734    0 21791 37651.6000 5911.89734  84.3%     -  782s
H    0     0                    37175.200000 5911.89734  84.1%     -  782s
     0     0          -    0      37175.2000 5911.89734  84.1%     - 1000s

Cutting planes:
  Learned: 111
  Cover: 4205
  Implied bound: 1068
  Clique: 2862
  MIR: 729
  StrongCG: 509
  Flow cover: 218
  Zero half: 2490
  Network: 26
  RLT: 2411
  Relax-and-lift: 396

Explored 1 nodes (642637 simplex iterations) in 1000.02 seconds (1472.75 work units)
Thread count was 12 (of 12 available processors)

Solution count 4: 37175.2 37651.6 38921.2 38949.2 

Time limit reached
Best objective 3.717520000000e+04, best bound 5.912000000000e+03, gap 84.0969%

Gurobi 9.5.1 (win64) logging started Thu May 26 03:34:58 2022

Set parameter LogFile to value "./Log/Direct_MIP_Sshape_solver_1080_order_108_batch.log"
Gurobi Optimizer version 9.5.1 build v9.5.1rc2 (win64)
Thread count: 6 physical cores, 12 logical processors, using up to 12 threads
Optimize a model with 244836 rows, 355104 columns and 1336284 nonzeros
Model fingerprint: 0x6408ed60
Model has 5076 quadratic constraints
Variable types: 0 continuous, 355104 integer (344736 binary)
Coefficient statistics:
  Matrix range     [1e+00, 5e+01]
  QMatrix range    [1e+00, 1e+00]
  QLMatrix range   [1e+00, 1e+00]
  Objective range  [4e-01, 4e+01]
  Bounds range     [1e+00, 1e+00]
  RHS range        [1e+00, 1e+01]
Presolve removed 112104 rows and 121824 columns
Presolve time: 3.31s
Presolved: 132732 rows, 233280 columns, 983556 nonzeros
Variable types: 0 continuous, 233280 integer (223236 binary)
Found heuristic solution: objective 39560.400000

Deterministic concurrent LP optimizer: primal and dual simplex
Showing first log only...


Use crossover to convert LP symmetric solution to basic solution...

Root crossover log...

   15279 PPushes remaining with PInf 0.0000000e+00                10s
    4044 PPushes remaining with PInf 0.0000000e+00                15s
       0 PPushes remaining with PInf 0.0000000e+00                17s

  Push phase complete: Pinf 0.0000000e+00, Dinf 2.0441179e-10     17s


Root simplex log...

Iteration    Objective       Primal Inf.    Dual Inf.      Time
  126753    4.1942400e+03   0.000000e+00   0.000000e+00     17s
  126753    4.1942400e+03   0.000000e+00   0.000000e+00     17s
Concurrent spin time: 1.80s

Solved with primal simplex

Root relaxation: objective 4.194240e+03, 126753 iterations, 13.11 seconds (23.83 work units)

    Nodes    |    Current Node    |     Objective Bounds      |     Work
 Expl Unexpl |  Obj  Depth IntInf | Incumbent    BestBd   Gap | It/Node Time

     0     0 4194.24000    0 25350 39560.4000 4194.24000  89.4%     -  109s
H    0     0                    39557.200000 4194.24000  89.4%     -  109s
     0     0 4194.24000    0 17080 39557.2000 4194.24000  89.4%     -  458s
H    0     0                    37613.200000 4194.24000  88.8%     -  479s
     0     0 4195.44000    0 16709 37613.2000 4195.44000  88.8%     -  491s
     0     0 4195.73333    0 16598 37613.2000 4195.73333  88.8%     -  495s
     0     0 4195.73333    0 16495 37613.2000 4195.73333  88.8%     -  497s
     0     0 5115.26667    0 18282 37613.2000 5115.26667  86.4%     -  689s
H    0     0                    37255.200000 5115.26667  86.3%     -  690s
     0     0          -    0      37255.2000 5115.26667  86.3%     - 1000s

Cutting planes:
  Learned: 149
  Cover: 5057
  Implied bound: 914
  Clique: 3419
  MIR: 655
  StrongCG: 275
  Flow cover: 492
  Zero half: 2107
  Network: 74
  RLT: 2523
  Relax-and-lift: 213

Explored 1 nodes (564724 simplex iterations) in 1000.03 seconds (1524.83 work units)
Thread count was 12 (of 12 available processors)

Solution count 4: 37255.2 37613.2 39557.2 39560.4 

Time limit reached
Best objective 3.725520000000e+04, best bound 5.115600000000e+03, gap 86.2688%

Gurobi 9.5.1 (win64) logging started Thu May 26 03:51:50 2022

Set parameter LogFile to value "./Log/Direct_MIP_Sshape_solver_1080_order_108_batch.log"
Gurobi Optimizer version 9.5.1 build v9.5.1rc2 (win64)
Thread count: 6 physical cores, 12 logical processors, using up to 12 threads
Optimize a model with 244836 rows, 355104 columns and 1337256 nonzeros
Model fingerprint: 0x70e05e77
Model has 5076 quadratic constraints
Variable types: 0 continuous, 355104 integer (344736 binary)
Coefficient statistics:
  Matrix range     [1e+00, 5e+01]
  QMatrix range    [1e+00, 1e+00]
  QLMatrix range   [1e+00, 1e+00]
  Objective range  [4e-01, 4e+01]
  Bounds range     [1e+00, 1e+00]
  RHS range        [1e+00, 1e+01]
Presolve removed 111888 rows and 121608 columns
Presolve time: 3.32s
Presolved: 132948 rows, 233496 columns, 983016 nonzeros
Variable types: 0 continuous, 233496 integer (223452 binary)
Found heuristic solution: objective 39099.200000

Deterministic concurrent LP optimizer: primal and dual simplex
Showing first log only...


Use crossover to convert LP symmetric solution to basic solution...

Root crossover log...

   17123 PPushes remaining with PInf 0.0000000e+00                10s
    7786 PPushes remaining with PInf 0.0000000e+00                15s
     282 PPushes remaining with PInf 0.0000000e+00                20s
       0 PPushes remaining with PInf 0.0000000e+00                20s

  Push phase complete: Pinf 0.0000000e+00, Dinf 2.1441147e-10     20s


Root simplex log...

Iteration    Objective       Primal Inf.    Dual Inf.      Time
  126751    4.1114400e+03   0.000000e+00   0.000000e+00     20s
  126751    4.1114400e+03   0.000000e+00   0.000000e+00     20s
Concurrent spin time: 1.40s

Solved with primal simplex

Root relaxation: objective 4.111440e+03, 126751 iterations, 16.19 seconds (29.08 work units)

    Nodes    |    Current Node    |     Objective Bounds      |     Work
 Expl Unexpl |  Obj  Depth IntInf | Incumbent    BestBd   Gap | It/Node Time

     0     0 4111.44000    0 27604 39099.2000 4111.44000  89.5%     -  130s
     0     0 4111.44000    0 15898 39099.2000 4111.44000  89.5%     -  415s
H    0     0                    36838.800000 4111.44000  88.8%     -  420s
     0     0 4111.44000    0 16238 36838.8000 4111.44000  88.8%     -  426s
     0     0 5666.64000    0 19523 36838.8000 5666.64000  84.6%     -  666s
     0     0          -    0      36838.8000 5666.64000  84.6%     - 1000s

Cutting planes:
  Learned: 138
  Cover: 8886
  Implied bound: 928
  Clique: 3180
  MIR: 1081
  StrongCG: 389
  Flow cover: 289
  Zero half: 2674
  Network: 8
  RLT: 2720
  Relax-and-lift: 166

Explored 1 nodes (546696 simplex iterations) in 1000.04 seconds (1452.90 work units)
Thread count was 12 (of 12 available processors)

Solution count 2: 36838.8 39099.2 

Time limit reached
Best objective 3.683880000000e+04, best bound 5.666800000000e+03, gap 84.6173%

Gurobi 9.5.1 (win64) logging started Thu May 26 04:08:41 2022

Set parameter LogFile to value "./Log/Direct_MIP_Sshape_solver_1080_order_108_batch.log"
Gurobi Optimizer version 9.5.1 build v9.5.1rc2 (win64)
Thread count: 6 physical cores, 12 logical processors, using up to 12 threads
Optimize a model with 244836 rows, 355104 columns and 1334232 nonzeros
Model fingerprint: 0x8770d87b
Model has 5076 quadratic constraints
Variable types: 0 continuous, 355104 integer (344736 binary)
Coefficient statistics:
  Matrix range     [1e+00, 5e+01]
  QMatrix range    [1e+00, 1e+00]
  QLMatrix range   [1e+00, 1e+00]
  Objective range  [4e-01, 4e+01]
  Bounds range     [1e+00, 1e+00]
  RHS range        [1e+00, 1e+01]
Presolve removed 110916 rows and 120636 columns
Presolve time: 3.32s
Presolved: 133920 rows, 234468 columns, 980424 nonzeros
Variable types: 0 continuous, 234468 integer (224424 binary)
Found heuristic solution: objective 39790.400000

Deterministic concurrent LP optimizer: primal and dual simplex
Showing first log only...


Use crossover to convert LP symmetric solution to basic solution...

Root crossover log...

    6006 PPushes remaining with PInf 0.0000000e+00                10s
       0 PPushes remaining with PInf 0.0000000e+00                12s

  Push phase complete: Pinf 0.0000000e+00, Dinf 2.1430950e-10     12s


Root simplex log...

Iteration    Objective       Primal Inf.    Dual Inf.      Time
  126753    4.2524800e+03   0.000000e+00   0.000000e+00     12s
  126753    4.2524800e+03   0.000000e+00   0.000000e+00     12s
Concurrent spin time: 0.00s

Solved with primal simplex

Root relaxation: objective 4.252480e+03, 126753 iterations, 8.10 seconds (13.63 work units)

    Nodes    |    Current Node    |     Objective Bounds      |     Work
 Expl Unexpl |  Obj  Depth IntInf | Incumbent    BestBd   Gap | It/Node Time

     0     0 4252.48000    0 25715 39790.4000 4252.48000  89.3%     -   69s
H    0     0                    39584.800000 4252.48000  89.3%     -   69s
     0     0 4252.48000    0 16731 39584.8000 4252.48000  89.3%     -  304s
H    0     0                    39542.000000 4252.48000  89.2%     -  306s
H    0     0                    39086.000000 4252.48000  89.1%     -  307s
     0     0 4252.48000    0 16953 39086.0000 4252.48000  89.1%     -  318s
     0     0 4439.01525    0 15396 39086.0000 4439.01525  88.6%     -  433s
H    0     0                    33887.600000 4439.01525  86.9%     -  433s
     0     0          -    0      33887.6000 4439.01525  86.9%     - 1000s

Cutting planes:
  Learned: 133
  Cover: 4651
  Implied bound: 694
  Clique: 3436
  MIR: 495
  StrongCG: 148
  Flow cover: 253
  Zero half: 1829
  Network: 168
  RLT: 1363
  Relax-and-lift: 379

Explored 1 nodes (530694 simplex iterations) in 1000.03 seconds (1451.37 work units)
Thread count was 12 (of 12 available processors)

Solution count 5: 33887.6 39086 39542 ... 39790.4

Time limit reached
Best objective 3.388760000000e+04, best bound 4.439200000000e+03, gap 86.9002%

Gurobi 9.5.1 (win64) logging started Thu May 26 04:25:33 2022

Set parameter LogFile to value "./Log/Direct_MIP_Sshape_solver_1080_order_108_batch.log"
Gurobi Optimizer version 9.5.1 build v9.5.1rc2 (win64)
Thread count: 6 physical cores, 12 logical processors, using up to 12 threads
Optimize a model with 244836 rows, 355104 columns and 1337904 nonzeros
Model fingerprint: 0x1985595a
Model has 5076 quadratic constraints
Variable types: 0 continuous, 355104 integer (344736 binary)
Coefficient statistics:
  Matrix range     [1e+00, 5e+01]
  QMatrix range    [1e+00, 1e+00]
  QLMatrix range   [1e+00, 1e+00]
  Objective range  [4e-01, 4e+01]
  Bounds range     [1e+00, 1e+00]
  RHS range        [1e+00, 1e+01]
Presolve removed 114264 rows and 123984 columns
Presolve time: 3.32s
Presolved: 130572 rows, 231120 columns, 969192 nonzeros
Variable types: 0 continuous, 231120 integer (221076 binary)
Found heuristic solution: objective 39550.800000

Deterministic concurrent LP optimizer: primal and dual simplex
Showing first log only...


Use crossover to convert LP symmetric solution to basic solution...

Root crossover log...

    6105 PPushes remaining with PInf 0.0000000e+00                10s
       0 PPushes remaining with PInf 0.0000000e+00                12s

  Push phase complete: Pinf 0.0000000e+00, Dinf 1.7558585e-10     12s


Root simplex log...

Iteration    Objective       Primal Inf.    Dual Inf.      Time
  126753    4.2159000e+03   0.000000e+00   0.000000e+00     12s
  126753    4.2159000e+03   0.000000e+00   0.000000e+00     12s
Concurrent spin time: 0.00s

Solved with primal simplex

Root relaxation: objective 4.215900e+03, 126753 iterations, 7.84 seconds (12.41 work units)

    Nodes    |    Current Node    |     Objective Bounds      |     Work
 Expl Unexpl |  Obj  Depth IntInf | Incumbent    BestBd   Gap | It/Node Time

     0     0 4215.90000    0 25038 39550.8000 4215.90000  89.3%     -   65s
     0     0 4215.90000    0 15621 39550.8000 4215.90000  89.3%     -  282s
H    0     0                    38265.600000 4215.90000  89.0%     -  285s
     0     0 4215.90000    0 15583 38265.6000 4215.90000  89.0%     -  290s
     0     0          -    0      38265.6000 4215.90000  89.0%     - 1000s

Cutting planes:
  Learned: 167
  Gomory: 1
  Cover: 8163
  Implied bound: 154
  Clique: 3042
  MIR: 281
  StrongCG: 10
  Flow cover: 53
  Zero half: 2559
  Network: 53
  RLT: 1413
  Relax-and-lift: 63

Explored 1 nodes (519396 simplex iterations) in 1000.02 seconds (1402.94 work units)
Thread count was 12 (of 12 available processors)

Solution count 2: 38265.6 39550.8 

Time limit reached
Best objective 3.826560000000e+04, best bound 4.216000000000e+03, gap 88.9823%
